BAYES
324
2 2 2 2 2 2 2 2 2 2 2 2 2 2 2 2 2 2 2 2 2 2 2 2 2 2 2 2 2 2 2 2 2 2 2 2 2 2 2 2 2 2 2 2 2 2 2 2 2 2 2 2 2 2 2 2 2 2 2 2 2 2 2 2 2 2 2 2 2 2 2 2 2 2 2 2 2 2 2 2 2 2 2 2 2 2 2 2 2 2 2 2 2 2 2 2 2 2 2 2 2 2 2 2 2 2 2 2 2 2 2 2 2 2 2 2 2 2 2 2 2 2 2 2 2 2 2 2 2 2 2 2 2 2 2 2 2 2 2 2 2 2 2 2 2 2 2 2 2 2 2 2 2 2 2 2 2 2 2 2 2 2 2 2 2 2 2 2 2 2 2 2 2 2 2 2 2 2 2 2 2 2 2 2 2 2 2 2 2 2 2 2 2 2 2 2 2 2 2 2 2 2 2 2 2 2 2 2 2 2 2 2 2 2 2 2 2 2 2 2 2 2 2 2 2 2 2 2 2 2 2 2 2 2 2 2 2 2 2 2 2 2 2 2 2 2 2 2 2 2 2 2 2 2 2 2 2 2 2 2 2 2 2 2 2 2 2 2 2 2 2 2 2 2 2 2 2 2 2 2 2 2 2 2 2 2 2 2 2 2 2 2 2 2 2 2 2 2 2 2 2 2 2 2 2 2 2 2 2 2 2 2 2 2 2 2 2 2 2 2 2 2 2 2
324
3 18 1 0
3 19 2 1
3 20 3 2
3 21 4 3
3 22 5 4
3 23 6 5
3 24 7 6
3 25 8 7
3 26 9 8
3 27 10 9
3 28 11 10
3 29 12 11
3 30 13 12
3 31 14 13
3 32 15 14
3 33 16 15
3 34 17 16
2 35 17
3 36 19 18
3 37 20 19
3 38 21 20
3 39 22 21
3 40 23 22
3 41 24 23
3 42 25 24
3 43 26 25
3 44 27 26
3 45 28 27
3 46 29 28
3 47 30 29
3 48 31 30
3 49 32 31
3 50 33 32
3 51 34 33
3 52 35 34
2 53 35
3 54 37 36
3 55 38 37
3 56 39 38
3 57 40 39
3 58 41 40
3 59 42 41
3 60 43 42
3 61 44 43
3 62 45 44
3 63 46 45
3 64 47 46
3 65 48 47
3 66 49 48
3 67 50 49
3 68 51 50
3 69 52 51
3 70 53 52
2 71 53
3 72 55 54
3 73 56 55
3 74 57 56
3 75 58 57
3 76 59 58
3 77 60 59
3 78 61 60
3 79 62 61
3 80 63 62
3 81 64 63
3 82 65 64
3 83 66 65
3 84 67 66
3 85 68 67
3 86 69 68
3 87 70 69
3 88 71 70
2 89 71
3 90 73 72
3 91 74 73
3 92 75 74
3 93 76 75
3 94 77 76
3 95 78 77
3 96 79 78
3 97 80 79
3 98 81 80
3 99 82 81
3 100 83 82
3 101 84 83
3 102 85 84
3 103 86 85
3 104 87 86
3 105 88 87
3 106 89 88
2 107 89
3 108 91 90
3 109 92 91
3 110 93 92
3 111 94 93
3 112 95 94
3 113 96 95
3 114 97 96
3 115 98 97
3 116 99 98
3 117 100 99
3 118 101 100
3 119 102 101
3 120 103 102
3 121 104 103
3 122 105 104
3 123 106 105
3 124 107 106
2 125 107
3 126 109 108
3 127 110 109
3 128 111 110
3 129 112 111
3 130 113 112
3 131 114 113
3 132 115 114
3 133 116 115
3 134 117 116
3 135 118 117
3 136 119 118
3 137 120 119
3 138 121 120
3 139 122 121
3 140 123 122
3 141 124 123
3 142 125 124
2 143 125
3 144 127 126
3 145 128 127
3 146 129 128
3 147 130 129
3 148 131 130
3 149 132 131
3 150 133 132
3 151 134 133
3 152 135 134
3 153 136 135
3 154 137 136
3 155 138 137
3 156 139 138
3 157 140 139
3 158 141 140
3 159 142 141
3 160 143 142
2 161 143
3 162 145 144
3 163 146 145
3 164 147 146
3 165 148 147
3 166 149 148
3 167 150 149
3 168 151 150
3 169 152 151
3 170 153 152
3 171 154 153
3 172 155 154
3 173 156 155
3 174 157 156
3 175 158 157
3 176 159 158
3 177 160 159
3 178 161 160
2 179 161
3 180 163 162
3 181 164 163
3 182 165 164
3 183 166 165
3 184 167 166
3 185 168 167
3 186 169 168
3 187 170 169
3 188 171 170
3 189 172 171
3 190 173 172
3 191 174 173
3 192 175 174
3 193 176 175
3 194 177 176
3 195 178 177
3 196 179 178
2 197 179
3 198 181 180
3 199 182 181
3 200 183 182
3 201 184 183
3 202 185 184
3 203 186 185
3 204 187 186
3 205 188 187
3 206 189 188
3 207 190 189
3 208 191 190
3 209 192 191
3 210 193 192
3 211 194 193
3 212 195 194
3 213 196 195
3 214 197 196
2 215 197
3 216 199 198
3 217 200 199
3 218 201 200
3 219 202 201
3 220 203 202
3 221 204 203
3 222 205 204
3 223 206 205
3 224 207 206
3 225 208 207
3 226 209 208
3 227 210 209
3 228 211 210
3 229 212 211
3 230 213 212
3 231 214 213
3 232 215 214
2 233 215
3 234 217 216
3 235 218 217
3 236 219 218
3 237 220 219
3 238 221 220
3 239 222 221
3 240 223 222
3 241 224 223
3 242 225 224
3 243 226 225
3 244 227 226
3 245 228 227
3 246 229 228
3 247 230 229
3 248 231 230
3 249 232 231
3 250 233 232
2 251 233
3 252 235 234
3 253 236 235
3 254 237 236
3 255 238 237
3 256 239 238
3 257 240 239
3 258 241 240
3 259 242 241
3 260 243 242
3 261 244 243
3 262 245 244
3 263 246 245
3 264 247 246
3 265 248 247
3 266 249 248
3 267 250 249
3 268 251 250
2 269 251
3 270 253 252
3 271 254 253
3 272 255 254
3 273 256 255
3 274 257 256
3 275 258 257
3 276 259 258
3 277 260 259
3 278 261 260
3 279 262 261
3 280 263 262
3 281 264 263
3 282 265 264
3 283 266 265
3 284 267 266
3 285 268 267
3 286 269 268
2 287 269
3 288 271 270
3 289 272 271
3 290 273 272
3 291 274 273
3 292 275 274
3 293 276 275
3 294 277 276
3 295 278 277
3 296 279 278
3 297 280 279
3 298 281 280
3 299 282 281
3 300 283 282
3 301 284 283
3 302 285 284
3 303 286 285
3 304 287 286
2 305 287
3 306 289 288
3 307 290 289
3 308 291 290
3 309 292 291
3 310 293 292
3 311 294 293
3 312 295 294
3 313 296 295
3 314 297 296
3 315 298 297
3 316 299 298
3 317 300 299
3 318 301 300
3 319 302 301
3 320 303 302
3 321 304 303
3 322 305 304
2 323 305
2 307 306
2 308 307
2 309 308
2 310 309
2 311 310
2 312 311
2 313 312
2 314 313
2 315 314
2 316 315
2 317 316
2 318 317
2 319 318
2 320 319
2 321 320
2 322 321
2 323 322
1  323
8
1 0 1 0 0 1 0 1
8
1 0 0 1 0 1 0 1
8
0 1 0 1 0 1 0 1
8
1 0 1 0 1 0 1 0
8
1 0 1 0 1 0 0 1
8
0 1 1 0 1 0 0 1
8
0 1 0 1 1 0 1 0
8
0 1 1 0 1 0 0 1
8
1 0 1 0 0 1 1 0
8
1 0 1 0 0 1 1 0
8
0 1 1 0 1 0 1 0
8
1 0 0 1 0 1 1 0
8
0 1 0 1 0 1 1 0
8
1 0 0 1 0 1 1 0
8
0.656496753881646 0.343503246118354 0.8252056017821924 0.17479439821780762 0.30702669254097587 0.6929733074590241 0.5386717863565166 0.4613282136434834
8
0 1 1 0 1 0 1 0
8
1 0 0 1 0 1 1 0
4
0.5515111748098593 0.44848882519014066 0.41590782617696753 0.5840921738230325
8
1 0 1 0 0 1 0 1
8
0 1 1 0 0 1 1 0
8
0 1 0 1 0 1 0 1
8
1 0 1 0 1 0 0 1
8
0 1 0 1 1 0 0 1
8
0 1 1 0 0 1 0 1
8
0 1 0 1 0 1 1 0
8
0 1 1 0 1 0 1 0
8
0 1 1 0 1 0 0 1
8
0 1 0 1 0 1 1 0
8
1 0 1 0 1 0 0 1
8
0 1 0 1 1 0 0 1
8
0 1 0 1 1 0 0 1
8
0 1 1 0 0 1 1 0
8
0 1 0 1 0 1 0 1
8
0 1 0 1 1 0 1 0
8
1 0 1 0 0 1 1 0
4
1 0 1 0
8
0 1 1 0 1 0 0 1
8
1 0 1 0 1 0 0 1
8
1 0 1 0 0 1 1 0
8
0 1 1 0 1 0 1 0
8
1 0 0 1 0 1 0 1
8
0 1 0 1 0 1 1 0
8
1 0 1 0 1 0 0 1
8
1 0 1 0 0 1 0 1
8
0.3984392638560059 0.6015607361439941 0.8949042611795495 0.10509573882045055 0.6339080214846824 0.3660919785153176 0.8517105633611534 0.14828943663884667
8
1 0 1 0 1 0 0 1
8
0 1 0 1 1 0 0 1
8
0 1 1 0 1 0 1 0
8
0.7238597478583658 0.2761402521416342 0.5221520743643407 0.47784792563565925 0.39147720383651735 0.6085227961634827 0.46205489593633353 0.5379451040636665
8
0 1 0 1 1 0 0 1
8
0 1 0 1 0 1 0 1
8
1 0 1 0 1 0 0 1
8
1 0 1 0 1 0 1 0
4
0 1 1 0
8
1 0 1 0 0 1 0 1
8
0 1 0 1 1 0 1 0
8
0 1 0 1 0 1 0 1
8
0.8954510496958491 0.10454895030415086 0.529248406162479 0.4707515938375209 0.3738489469496763 0.6261510530503237 0.1548338540612602 0.8451661459387397
8
0 1 1 0 1 0 1 0
8
0 1 0 1 0 1 0 1
8
0 1 0 1 0 1 1 0
8
0.9056536910434813 0.0943463089565187 0.2122901523370825 0.7877098476629175 0.63873185540214 0.36126814459786 0.740364152269189 0.2596358477308111
8
1 0 1 0 0 1 1 0
8
1 0 1 0 1 0 0 1
8
0 1 0 1 0 1 0 1
8
1 0 1 0 1 0 1 0
8
1 0 0 1 0 1 0 1
8
0.8949368334396977 0.10506316656030232 0.7097615525224077 0.2902384474775923 0.5166617596494876 0.4833382403505123 0.19071164455743425 0.8092883554425656
8
0 1 1 0 1 0 1 0
8
1 0 0 1 1 0 0 1
8
0 1 0 1 0 1 0 1
4
1 0 1 0
8
0 1 0 1 0 1 1 0
8
1 0 1 0 1 0 0 1
8
0.17615682762409374 0.8238431723759062 0.3744875652159792 0.6255124347840209 0.01765834808821176 0.9823416519117882 0.463373336315722 0.536626663684278
8
0 1 1 0 0 1 0 1
8
1 0 1 0 1 0 1 0
8
0 1 1 0 1 0 0 1
8
0 1 0 1 0 1 1 0
8
0 1 0 1 1 0 1 0
8
0 1 0 1 0 1 0 1
8
1 0 0 1 1 0 0 1
8
0 1 0 1 0 1 0 1
8
0 1 1 0 1 0 0 1
8
1 0 0 1 0 1 1 0
8
0 1 0 1 0 1 1 0
8
0 1 1 0 0 1 1 0
8
1 0 0 1 1 0 1 0
8
1 0 0 1 0 1 0 1
4
1 0 0 1
8
0 1 0 1 0 1 0 1
8
1 0 0 1 1 0 1 0
8
0 1 1 0 0 1 0 1
8
1 0 0 1 0 1 1 0
8
0.5695804043668334 0.4304195956331666 0.7361844312536084 0.26381556874639156 0.3112470676003921 0.6887529323996079 0.5991338097345056 0.40086619026549447
8
1 0 0 1 1 0 0 1
8
0 1 1 0 1 0 0 1
8
1 0 0 1 0 1 0 1
8
0 1 1 0 0 1 0 1
8
0 1 1 0 1 0 0 1
8
1 0 1 0 1 0 0 1
8
1 0 1 0 1 0 1 0
8
1 0 1 0 1 0 0 1
8
1 0 0 1 1 0 1 0
8
1 0 1 0 1 0 0 1
8
1 0 0 1 0 1 1 0
8
1 0 1 0 0 1 1 0
4
0 1 0 1
8
0 1 1 0 1 0 0 1
8
1 0 0 1 0 1 1 0
8
1 0 0 1 1 0 0 1
8
0 1 0 1 1 0 1 0
8
0 1 1 0 0 1 1 0
8
1 0 1 0 0 1 0 1
8
1 0 1 0 1 0 0 1
8
1 0 1 0 1 0 0 1
8
0.9800488511494259 0.019951148850574113 0.28275976144874415 0.7172402385512557 0.36362668846792323 0.6363733115320768 0.5227451201055824 0.4772548798944176
8
0 1 1 0 1 0 0 1
8
1 0 1 0 0 1 1 0
8
0 1 0 1 0 1 1 0
8
0 1 1 0 0 1 1 0
8
0.4815497003446033 0.5184502996553967 0.5467260259512702 0.4532739740487299 0.6791146722222398 0.3208853277777602 0.6471015807629718 0.35289841923702836
8
0 1 1 0 1 0 1 0
8
0.8314354070970036 0.16856459290299644 0.35724442149430363 0.6427555785056964 0.940700993549523 0.059299006450477004 0.6835950909733268 0.3164049090266732
8
1 0 1 0 0 1 0 1
4
1 0 1 0
8
1 0 1 0 0 1 1 0
8
0 1 0 1 1 0 0 1
8
1 0 1 0 1 0 0 1
8
1 0 1 0 0 1 1 0
8
0 1 1 0 1 0 1 0
8
0 1 1 0 1 0 0 1
8
0.2506689529243879 0.749331047075612 0.5487265799739474 0.45127342002605264 0.17492499341571624 0.8250750065842838 0.29055537896484446 0.7094446210351555
8
1 0 0 1 0 1 0 1
8
0 1 0 1 1 0 1 0
8
0 1 0 1 1 0 0 1
8
0 1 0 1 0 1 1 0
8
0 1 0 1 1 0 1 0
8
1 0 1 0 0 1 0 1
8
1 0 0 1 0 1 1 0
8
0 1 0 1 0 1 0 1
8
0 1 1 0 0 1 1 0
8
0 1 0 1 1 0 0 1
4
1 0 0 1
8
1 0 0 1 1 0 1 0
8
0 1 1 0 1 0 1 0
8
0.5264679921392003 0.47353200786079974 0.4476407345972235 0.5523592654027765 0.5405677955517898 0.45943220444821026 0.46319767751888014 0.5368023224811198
8
0 1 1 0 0 1 0 1
8
1 0 1 0 1 0 1 0
8
0 1 1 0 1 0 1 0
8
1 0 0 1 1 0 1 0
8
0.6429619744537991 0.35703802554620084 0.6672112634309878 0.3327887365690122 0.7222930213477344 0.27770697865226557 0.9431437042815117 0.05685629571848826
8
0 1 1 0 0 1 1 0
8
0 1 0 1 1 0 1 0
8
1 0 1 0 0 1 0 1
8
0 1 1 0 1 0 1 0
8
0 1 1 0 0 1 0 1
8
1 0 1 0 1 0 1 0
8
1 0 0 1 0 1 1 0
8
1 0 0 1 0 1 1 0
8
1 0 1 0 1 0 0 1
4
1 0 1 0
8
1 0 0 1 0 1 1 0
8
0 1 1 0 0 1 0 1
8
0 1 1 0 1 0 1 0
8
0 1 1 0 0 1 1 0
8
0.4718981676424853 0.5281018323575147 0.38988122231389544 0.6101187776861046 0.5519208849746745 0.44807911502532544 0.8765625281125926 0.12343747188740743
8
0 1 1 0 1 0 0 1
8
0 1 0 1 0 1 1 0
8
1 0 1 0 1 0 1 0
8
0 1 0 1 1 0 0 1
8
1 0 0 1 1 0 0 1
8
1 0 0 1 1 0 0 1
8
0 1 1 0 1 0 0 1
8
1 0 1 0 0 1 0 1
8
1 0 0 1 0 1 0 1
8
0.11375329233089755 0.8862467076691024 0.7015776387777423 0.29842236122225774 0.5618155062673755 0.43818449373262436 0.1233138894613471 0.8766861105386529
8
0.13750027742190546 0.8624997225780945 0.6937447595978082 0.3062552404021918 0.7428331293432345 0.25716687065676547 0.6158995343982204 0.38410046560177963
8
1 0 1 0 0 1 0 1
4
0 1 0 1
8
0.7129547873542206 0.2870452126457795 0.4394400040505123 0.5605599959494877 0.3116364369872407 0.6883635630127594 0.5635661852822732 0.4364338147177268
8
0 1 0 1 0 1 0 1
8
0 1 0 1 0 1 0 1
8
0 1 1 0 0 1 0 1
8
1 0 1 0 0 1 0 1
8
0 1 1 0 1 0 1 0
8
0 1 1 0 0 1 0 1
8
1 0 0 1 0 1 1 0
8
0 1 1 0 1 0 0 1
8
1 0 0 1 0 1 0 1
8
1 0 0 1 0 1 1 0
8
1 0 1 0 1 0 1 0
8
0 1 1 0 1 0 0 1
8
0 1 1 0 0 1 0 1
8
0 1 1 0 1 0 1 0
8
1 0 1 0 1 0 0 1
8
1 0 0 1 0 1 1 0
4
0 1 0 1
8
0 1 1 0 0 1 1 0
8
0 1 0 1 0 1 0 1
8
1 0 1 0 1 0 0 1
8
1 0 0 1 1 0 1 0
8
0 1 0 1 0 1 0 1
8
1 0 0 1 1 0 0 1
8
0 1 1 0 1 0 0 1
8
0.8726946447881684 0.12730535521183164 0.33444122346894406 0.6655587765310559 0.8078753974894395 0.19212460251056046 0.7156732178647309 0.284326782135269
8
0 1 0 1 0 1 0 1
8
1 0 1 0 0 1 1 0
8
0 1 1 0 1 0 1 0
8
1 0 0 1 1 0 1 0
8
1 0 1 0 0 1 0 1
8
1 0 1 0 0 1 0 1
8
1 0 1 0 1 0 0 1
8
0 1 1 0 0 1 0 1
8
0 1 0 1 0 1 0 1
4
1 0 0 1
8
1 0 0 1 0 1 1 0
8
1 0 1 0 1 0 0 1
8
0 1 1 0 1 0 0 1
8
1 0 1 0 0 1 0 1
8
1 0 0 1 1 0 0 1
8
1 0 0 1 1 0 0 1
8
0 1 1 0 1 0 1 0
8
0.3207867395597374 0.6792132604402625 0.45435554696253544 0.5456444530374644 0.13157657339019044 0.8684234266098095 0.6742274929704566 0.3257725070295434
8
0 1 0 1 0 1 1 0
8
1 0 1 0 1 0 1 0
8
1 0 1 0 1 0 0 1
8
0.4226121702308758 0.5773878297691242 0.5834358892191848 0.4165641107808153 0.6255108184784796 0.3744891815215204 0.4294758518185309 0.570524148181469
8
0 1 1 0 1 0 0 1
8
0.49271052575991986 0.5072894742400802 0.34422293552601185 0.6557770644739881 0.09939405862064975 0.9006059413793502 0.8861420262573598 0.11385797374264013
8
1 0 0 1 0 1 0 1
8
0 1 1 0 0 1 1 0
8
0 1 1 0 1 0 0 1
4
1 0 1 0
8
1 0 1 0 0 1 1 0
8
0 1 1 0 1 0 0 1
8
1 0 0 1 1 0 0 1
8
1 0 1 0 1 0 0 1
8
0 1 1 0 1 0 1 0
8
1 0 1 0 1 0 0 1
8
0 1 0 1 0 1 0 1
8
1 0 1 0 0 1 0 1
8
0 1 0 1 0 1 1 0
8
1 0 0 1 1 0 1 0
8
0 1 1 0 0 1 1 0
8
0 1 0 1 0 1 1 0
8
1 0 1 0 0 1 0 1
8
0 1 1 0 0 1 0 1
8
0.40897231724047456 0.5910276827595254 0.8412079859879378 0.15879201401206225 0.19541932711735988 0.8045806728826401 0.7482182022242483 0.2517817977757517
8
1 0 1 0 0 1 0 1
8
0 1 1 0 0 1 1 0
4
0 1 0 1
8
0 1 0 1 1 0 1 0
8
0 1 0 1 0 1 1 0
8
1 0 1 0 0 1 0 1
8
1 0 0 1 1 0 0 1
8
1 0 0 1 0 1 1 0
8
0 1 1 0 1 0 0 1
8
0 1 0 1 0 1 1 0
8
0 1 0 1 0 1 0 1
8
0 1 0 1 0 1 1 0
8
0 1 1 0 1 0 1 0
8
0 1 1 0 1 0 0 1
8
0 1 1 0 0 1 0 1
8
0 1 1 0 1 0 1 0
8
1 0 1 0 0 1 1 0
8
0 1 0 1 1 0 1 0
8
0.4763514064872096 0.5236485935127904 0.06291113548792725 0.9370888645120727 0.8424905613811159 0.15750943861888408 0.21903141519188513 0.7809685848081148
8
0 1 0 1 1 0 0 1
4
0.5464023380292957 0.4535976619707043 0.43333319642971846 0.5666668035702815
8
0 1 1 0 1 0 0 1
8
1 0 0 1 1 0 0 1
8
0 1 0 1 1 0 1 0
8
0 1 1 0 0 1 0 1
8
0 1 0 1 0 1 1 0
8
0 1 0 1 0 1 0 1
8
0 1 0 1 1 0 1 0
8
1 0 1 0 1 0 1 0
8
1 0 0 1 1 0 1 0
8
0.32704715770920495 0.672952842290795 0.8021235279965235 0.19787647200347652 0.6207390096855633 0.37926099031443666 0.5612449020951567 0.4387550979048433
8
0 1 1 0 0 1 0 1
8
0 1 1 0 0 1 1 0
8
0 1 0 1 1 0 1 0
8
1 0 1 0 1 0 0 1
8
0 1 0 1 0 1 1 0
8
1 0 0 1 0 1 1 0
8
1 0 1 0 1 0 1 0
4
0 1 0 1
8
0 1 0 1 1 0 0 1
8
0 1 0 1 0 1 0 1
8
1 0 1 0 0 1 1 0
8
1 0 0 1 0 1 1 0
8
1 0 1 0 1 0 0 1
8
0 1 1 0 1 0 1 0
8
1 0 1 0 0 1 1 0
8
0 1 0 1 0 1 1 0
8
0.5408267189947535 0.4591732810052465 0.8272590041783172 0.1727409958216828 0.6538445090563529 0.34615549094364706 0.7721785757076313 0.2278214242923687
8
0 1 0 1 1 0 0 1
8
0 1 0 1 1 0 1 0
8
0 1 1 0 1 0 0 1
8
0 1 1 0 1 0 1 0
8
1 0 1 0 0 1 0 1
8
0 1 1 0 1 0 0 1
8
1 0 1 0 0 1 0 1
8
0.6362082317979469 0.36379176820205306 0.1420514051155178 0.857948594884482 0.7382693787998691 0.26173062120013096 0.4003638037135395 0.5996361962864604
4
0 1 0 1
4
1 0 0 1
4
1 0 1 0
4
0 1 1 0
4
0 1 0 1
4
1 0 0 1
4
1 0 0 1
4
0 1 0 1
4
1 0 1 0
4
1 0 1 0
4
0.31521181676547005 0.68478818323453 0.9711235991034443 0.028876400896555722
4
0.3788674557515961 0.6211325442484038 0.2435084280112947 0.7564915719887053
4
0.5703133525999017 0.4296866474000983 0.6553294960696233 0.3446705039303767
4
1 0 0 1
4
0.8707677393123738 0.12923226068762614 0.08243123085111345 0.9175687691488865
4
1 0 0 1
4
1 0 1 0
4
1 0 1 0
2
1 0
